--------------------------------------------------------------------------------(Solver execution current time: 0.0007932186126708984)
[INFO] Input Seed : 0
--------------------------------------------------------------------------------(Solver execution current time: 0.0010030269622802734)
[INFO] Input time limit : 30
--------------------------------------------------------------------------------(Solver execution current time: 0.0011718273162841797)
[INFO] Command line arguments read with no errors.
--------------------------------------------------------------------------------(Solver execution current time: 0.16614818572998047)
[INFO] Input file read with no errors.
--------------------------------------------------------------------------------(Solver execution current time: 0.16624927520751953)
[INFO] Starting solver.
--------------------------------------------------------------------------------(Solver execution current time: 0.1662912368774414)
[INFO] Starting construction
--------------------------------------------------------------------------------(Solver execution current time: 11.253729820251465)
[INFO] Finished construction
--------------------------------------------------------------------------------(Solver execution current time: 11.253820180892944)
[SOLUTION]
Basic Greedy Heuristic
Exec Time: 11.087437391281128
obj_value: -88; obj_routes: 32622.0
Route 1 : 80 180 44 69 22 144 6 1 14 81 78 122 106 181 95 16 116 195 49 178 73 169 173 114 79 149 101 179 97 197 67 71 48 167 148 171 74 174 
Route 2 : 51 68 62 30 46 168 146 92 59 192 91 159 52 191 58 152 66 162 158 166 82 57 151 20 85 130 120 157 182 185 76 60 72 13 113 176 56 156 40 160 172 140 
Route 3 : 3 103 88 188 17 37 137 117 10 110 83 96 70 84 196 34 134 53 153 184 183 170 32 132 54 154 
Route 4 : 77 75 175 177 19 119 100 200 18 118 47 29 129 147 87 187 36 136 
Route 5 : 23 123 9 109 99 199 42 43 63 142 163 143 89 189 11 111 26 126 
Route 6 : 41 12 27 112 141 127 65 165 39 139 45 145 90 190 35 38 135 138 
Route 7 : 64 55 164 155 
Route 8 : 86 186 
Route 9 : 4 98 198 104 
Route 10 : 15 21 28 128 115 121 
Route 11 : 
Route 12 : 
Route 13 : 
Route 14 : 
Route 15 : 
Route 16 : 
Route 17 : 
Route 18 : 
Route 19 : 
Route 20 : 
Route 21 : 

--------------------------------------------------------------------------------(Solver execution current time: 11.255026578903198)
[SOLUTION]
Solution after BasicGreedyLimitedHeterogeneousFleet
obj_value: -88; obj_routes: 32622.0
Route 1 : 80 180 44 69 22 144 6 1 14 81 78 122 106 181 95 16 116 195 49 178 73 169 173 114 79 149 101 179 97 197 67 71 48 167 148 171 74 174 
Route 2 : 51 68 62 30 46 168 146 92 59 192 91 159 52 191 58 152 66 162 158 166 82 57 151 20 85 130 120 157 182 185 76 60 72 13 113 176 56 156 40 160 172 140 
Route 3 : 3 103 88 188 17 37 137 117 10 110 83 96 70 84 196 34 134 53 153 184 183 170 32 132 54 154 
Route 4 : 77 75 175 177 19 119 100 200 18 118 47 29 129 147 87 187 36 136 
Route 5 : 23 123 9 109 99 199 42 43 63 142 163 143 89 189 11 111 26 126 
Route 6 : 41 12 27 112 141 127 65 165 39 139 45 145 90 190 35 38 135 138 
Route 7 : 64 55 164 155 
Route 8 : 86 186 
Route 9 : 4 98 198 104 
Route 10 : 15 21 28 128 115 121 
Route 11 : 
Route 12 : 
Route 13 : 
Route 14 : 
Route 15 : 
Route 16 : 
Route 17 : 
Route 18 : 
Route 19 : 
Route 20 : 
Route 21 : 

--------------------------------------------------------------------------------(Solver execution current time: 11.2552969455719)
[INFO] Starting metaheuristic
--------------------------------------------------------------------------------(Solver execution current time: 11.258280992507935)
[INFO] AGES EXCLUDED
--------------------------------------------------------------------------------(Solver execution current time: 11.259934663772583)
[INFO] Starting LNS
--------------------------------------------------------------------------------(Solver execution current time: 12.154006481170654)
[SOLUTION]
LNS
IT: 40
Exec Time: 0.8918411731719971
obj_value: -88; obj_routes: 32622.0
Route 1 : 80 180 44 69 22 144 6 1 14 81 78 122 106 181 95 16 116 195 49 178 73 169 173 114 79 149 101 179 97 197 67 71 48 167 148 171 74 174 
Route 2 : 51 68 62 30 46 168 146 92 59 192 91 159 52 191 58 152 66 162 158 166 82 57 151 20 85 130 120 157 182 185 76 60 72 13 113 176 56 156 40 160 172 140 
Route 3 : 3 103 88 188 17 37 137 117 10 110 83 96 70 84 196 34 134 53 153 184 183 170 32 132 54 154 
Route 4 : 77 75 175 177 19 119 100 200 18 118 47 29 129 147 87 187 36 136 
Route 5 : 23 123 9 109 99 199 42 43 63 142 163 143 89 189 11 111 26 126 
Route 6 : 41 12 27 112 141 127 65 165 39 139 45 145 90 190 35 38 135 138 
Route 7 : 64 55 164 155 
Route 8 : 86 186 
Route 9 : 4 98 198 104 
Route 10 : 15 21 28 128 115 121 
Route 11 : 
Route 12 : 
Route 13 : 
Route 14 : 
Route 15 : 
Route 16 : 
Route 17 : 
Route 18 : 
Route 19 : 
Route 20 : 
Route 21 : 

--------------------------------------------------------------------------------(Solver execution current time: 12.15608835220337)
[INFO] Starting PartitionMaxRequestsHF
--------------------------------------------------------------------------------(Solver execution current time: 12.228164196014404)
[SOLUTION]
PartitionMaxRequestsHF
Exec Time: 0.07201623916625977
obj_value: -88; obj_routes: 32622.0
Route 1 : 80 180 44 69 22 144 6 1 14 81 78 122 106 181 95 16 116 195 49 178 73 169 173 114 79 149 101 179 97 197 67 71 48 167 148 171 74 174 
Route 2 : 51 68 62 30 46 168 146 92 59 192 91 159 52 191 58 152 66 162 158 166 82 57 151 20 85 130 120 157 182 185 76 60 72 13 113 176 56 156 40 160 172 140 
Route 3 : 3 103 88 188 17 37 137 117 10 110 83 96 70 84 196 34 134 53 153 184 183 170 32 132 54 154 
Route 4 : 77 75 175 177 19 119 100 200 18 118 47 29 129 147 87 187 36 136 
Route 5 : 23 123 9 109 99 199 42 43 63 142 163 143 89 189 11 111 26 126 
Route 6 : 41 12 27 112 141 127 65 165 39 139 45 145 90 190 35 38 135 138 
Route 7 : 64 55 164 155 
Route 8 : 86 186 
Route 9 : 4 98 198 104 
Route 10 : 15 21 28 128 115 121 
Route 11 : 
Route 12 : 
Route 13 : 
Route 14 : 
Route 15 : 
Route 16 : 
Route 17 : 
Route 18 : 
Route 19 : 
Route 20 : 
Route 21 : 

--------------------------------------------------------------------------------(Solver execution current time: 12.230591535568237)
[INFO] Starting OriginalPerturbation
--------------------------------------------------------------------------------(Solver execution current time: 20.87301993370056)
[SOLUTION]
Original Perturbation
Exec Time: 8.644366979598999
obj_value: -88; obj_routes: 33317.0
Route 1 : 80 180 44 69 22 144 6 1 14 81 78 122 106 181 95 16 116 195 49 178 73 169 173 114 79 149 101 179 97 197 71 48 148 171 
Route 2 : 51 68 62 30 46 168 146 92 59 192 91 159 52 191 58 152 66 162 158 166 82 57 151 20 85 130 120 157 182 185 76 60 72 13 113 176 56 156 40 160 172 140 
Route 3 : 3 103 88 188 17 37 137 117 10 110 83 96 70 84 196 34 134 53 153 184 183 170 54 32 132 154 
Route 4 : 77 75 175 177 19 119 100 200 18 118 47 29 129 147 87 187 
Route 5 : 23 123 9 109 99 199 42 43 63 142 163 143 89 189 11 111 26 126 
Route 6 : 41 12 27 112 141 127 65 165 39 139 45 145 90 190 38 138 
Route 7 : 64 55 164 155 
Route 8 : 
Route 9 : 4 98 198 104 67 167 
Route 10 : 15 21 28 128 115 121 
Route 11 : 35 135 
Route 12 : 36 136 
Route 13 : 86 186 74 174 
Route 14 : 
Route 15 : 
Route 16 : 
Route 17 : 
Route 18 : 
Route 19 : 
Route 20 : 
Route 21 : 

--------------------------------------------------------------------------------(Solver execution current time: 20.87539029121399)
[SOLUTION]
SBMath
IT: 1
ITs witout improving: 1
IT time: 9.61711049079895
Time since begin: 9.618222713470459
obj_value: -88; obj_routes: 33317.0
Route 1 : 80 180 44 69 22 144 6 1 14 81 78 122 106 181 95 16 116 195 49 178 73 169 173 114 79 149 101 179 97 197 71 48 148 171 
Route 2 : 51 68 62 30 46 168 146 92 59 192 91 159 52 191 58 152 66 162 158 166 82 57 151 20 85 130 120 157 182 185 76 60 72 13 113 176 56 156 40 160 172 140 
Route 3 : 3 103 88 188 17 37 137 117 10 110 83 96 70 84 196 34 134 53 153 184 183 170 54 32 132 154 
Route 4 : 77 75 175 177 19 119 100 200 18 118 47 29 129 147 87 187 
Route 5 : 23 123 9 109 99 199 42 43 63 142 163 143 89 189 11 111 26 126 
Route 6 : 41 12 27 112 141 127 65 165 39 139 45 145 90 190 38 138 
Route 7 : 64 55 164 155 
Route 8 : 
Route 9 : 4 98 198 104 67 167 
Route 10 : 15 21 28 128 115 121 
Route 11 : 35 135 
Route 12 : 36 136 
Route 13 : 86 186 74 174 
Route 14 : 
Route 15 : 
Route 16 : 
Route 17 : 
Route 18 : 
Route 19 : 
Route 20 : 
Route 21 : 

--------------------------------------------------------------------------------(Solver execution current time: 20.875670671463013)
[SOLUTION]
SBMath
IT: 1
ITs witout improving: 1
IT time: 9.61711049079895
Time since begin: 9.618222713470459
obj_value: -88; obj_routes: 32622.0
Route 1 : 80 180 44 69 22 144 6 1 14 81 78 122 106 181 95 16 116 195 49 178 73 169 173 114 79 149 101 179 97 197 67 71 48 167 148 171 74 174 
Route 2 : 51 68 62 30 46 168 146 92 59 192 91 159 52 191 58 152 66 162 158 166 82 57 151 20 85 130 120 157 182 185 76 60 72 13 113 176 56 156 40 160 172 140 
Route 3 : 3 103 88 188 17 37 137 117 10 110 83 96 70 84 196 34 134 53 153 184 183 170 32 132 54 154 
Route 4 : 77 75 175 177 19 119 100 200 18 118 47 29 129 147 87 187 36 136 
Route 5 : 23 123 9 109 99 199 42 43 63 142 163 143 89 189 11 111 26 126 
Route 6 : 41 12 27 112 141 127 65 165 39 139 45 145 90 190 35 38 135 138 
Route 7 : 64 55 164 155 
Route 8 : 86 186 
Route 9 : 4 98 198 104 
Route 10 : 15 21 28 128 115 121 
Route 11 : 
Route 12 : 
Route 13 : 
Route 14 : 
Route 15 : 
Route 16 : 
Route 17 : 
Route 18 : 
Route 19 : 
Route 20 : 
Route 21 : 

--------------------------------------------------------------------------------(Solver execution current time: 20.875914096832275)
[INFO] AGES EXCLUDED
--------------------------------------------------------------------------------(Solver execution current time: 20.877686262130737)
[INFO] Starting LNS
--------------------------------------------------------------------------------(Solver execution current time: 21.936351537704468)
[SOLUTION]
LNS
IT: 40
Exec Time: 1.0561919212341309
obj_value: -88; obj_routes: 33317.0
Route 1 : 80 180 44 69 22 144 6 1 14 81 78 122 106 181 95 16 116 195 49 178 73 169 173 114 79 149 101 179 97 197 71 48 148 171 
Route 2 : 51 68 62 30 46 168 146 92 59 192 91 159 52 191 58 152 66 162 158 166 82 57 151 20 85 130 120 157 182 185 76 60 72 13 113 176 56 156 40 160 172 140 
Route 3 : 3 103 88 188 17 37 137 117 10 110 83 96 70 84 196 34 134 53 153 184 183 170 54 32 132 154 
Route 4 : 77 75 175 177 19 119 100 200 18 118 47 29 129 147 87 187 
Route 5 : 23 123 9 109 99 199 42 43 63 142 163 143 89 189 11 111 26 126 
Route 6 : 41 12 27 112 141 127 65 165 39 139 45 145 90 190 38 138 
Route 7 : 64 55 164 155 
Route 8 : 
Route 9 : 4 98 198 104 67 167 
Route 10 : 15 21 28 128 115 121 
Route 11 : 35 135 
Route 12 : 36 136 
Route 13 : 86 186 74 174 
Route 14 : 
Route 15 : 
Route 16 : 
Route 17 : 
Route 18 : 
Route 19 : 
Route 20 : 
Route 21 : 

--------------------------------------------------------------------------------(Solver execution current time: 21.939554929733276)
[INFO] Starting PartitionMaxRequestsHF
--------------------------------------------------------------------------------(Solver execution current time: 21.973834991455078)
[SOLUTION]
PartitionMaxRequestsHF
Exec Time: 0.03416609764099121
Improvedobj_value: -88; obj_routes: 32622.0
Route 1 : 80 180 44 69 22 144 6 1 14 81 78 122 106 181 95 16 116 195 49 178 73 169 173 114 79 149 101 179 97 197 67 71 48 167 148 171 74 174 
Route 2 : 51 68 62 30 46 168 146 92 59 192 91 159 52 191 58 152 66 162 158 166 82 57 151 20 85 130 120 157 182 185 76 60 72 13 113 176 56 156 40 160 172 140 
Route 3 : 3 103 88 188 17 37 137 117 10 110 83 96 70 84 196 34 134 53 153 184 183 170 32 132 54 154 
Route 4 : 77 75 175 177 19 119 100 200 18 118 47 29 129 147 87 187 36 136 
Route 5 : 23 123 9 109 99 199 42 43 63 142 163 143 89 189 11 111 26 126 
Route 6 : 41 12 27 112 141 127 65 165 39 139 45 145 90 190 35 38 135 138 
Route 7 : 64 55 164 155 
Route 8 : 86 186 
Route 9 : 4 98 198 104 
Route 10 : 15 21 28 128 115 121 
Route 11 : 
Route 12 : 
Route 13 : 
Route 14 : 
Route 15 : 
Route 16 : 
Route 17 : 
Route 18 : 
Route 19 : 
Route 20 : 
Route 21 : 

--------------------------------------------------------------------------------(Solver execution current time: 21.97640371322632)
[INFO] Starting OriginalPerturbation
--------------------------------------------------------------------------------(Solver execution current time: 23.720150470733643)
[SOLUTION]
Original Perturbation
Exec Time: 1.745671033859253
obj_value: -88; obj_routes: 33736.0
Route 1 : 80 180 44 69 22 144 6 1 14 81 78 122 106 181 95 16 116 195 49 178 73 169 173 114 79 149 101 179 97 197 71 48 148 171 
Route 2 : 51 68 62 30 46 168 146 92 59 192 91 159 52 191 58 152 66 162 158 166 82 57 151 20 85 130 120 157 182 185 76 60 72 13 113 176 56 156 40 160 172 140 
Route 3 : 3 103 88 188 17 37 137 117 10 110 83 96 70 84 196 34 134 53 153 184 183 170 32 132 
Route 4 : 77 75 175 177 19 119 100 200 18 118 47 29 129 147 87 187 67 167 
Route 5 : 23 123 9 109 99 199 42 43 63 142 163 143 89 189 11 111 26 126 
Route 6 : 41 12 27 112 141 127 65 165 39 139 45 145 90 190 
Route 7 : 64 55 164 155 
Route 8 : 74 174 
Route 9 : 4 98 198 104 
Route 10 : 15 21 28 128 115 121 
Route 11 : 35 135 
Route 12 : 36 136 
Route 13 : 86 186 
Route 14 : 38 138 54 154 
Route 15 : 
Route 16 : 
Route 17 : 
Route 18 : 
Route 19 : 
Route 20 : 
Route 21 : 

--------------------------------------------------------------------------------(Solver execution current time: 23.722185373306274)
[SOLUTION]
SBMath
IT: 2
ITs witout improving: 2
IT time: 2.846275568008423
Time since begin: 12.465018272399902
obj_value: -88; obj_routes: 33736.0
Route 1 : 80 180 44 69 22 144 6 1 14 81 78 122 106 181 95 16 116 195 49 178 73 169 173 114 79 149 101 179 97 197 71 48 148 171 
Route 2 : 51 68 62 30 46 168 146 92 59 192 91 159 52 191 58 152 66 162 158 166 82 57 151 20 85 130 120 157 182 185 76 60 72 13 113 176 56 156 40 160 172 140 
Route 3 : 3 103 88 188 17 37 137 117 10 110 83 96 70 84 196 34 134 53 153 184 183 170 32 132 
Route 4 : 77 75 175 177 19 119 100 200 18 118 47 29 129 147 87 187 67 167 
Route 5 : 23 123 9 109 99 199 42 43 63 142 163 143 89 189 11 111 26 126 
Route 6 : 41 12 27 112 141 127 65 165 39 139 45 145 90 190 
Route 7 : 64 55 164 155 
Route 8 : 74 174 
Route 9 : 4 98 198 104 
Route 10 : 15 21 28 128 115 121 
Route 11 : 35 135 
Route 12 : 36 136 
Route 13 : 86 186 
Route 14 : 38 138 54 154 
Route 15 : 
Route 16 : 
Route 17 : 
Route 18 : 
Route 19 : 
Route 20 : 
Route 21 : 

--------------------------------------------------------------------------------(Solver execution current time: 23.722432851791382)
[SOLUTION]
SBMath
IT: 2
ITs witout improving: 2
IT time: 2.846275568008423
Time since begin: 12.465018272399902
obj_value: -88; obj_routes: 32622.0
Route 1 : 80 180 44 69 22 144 6 1 14 81 78 122 106 181 95 16 116 195 49 178 73 169 173 114 79 149 101 179 97 197 67 71 48 167 148 171 74 174 
Route 2 : 51 68 62 30 46 168 146 92 59 192 91 159 52 191 58 152 66 162 158 166 82 57 151 20 85 130 120 157 182 185 76 60 72 13 113 176 56 156 40 160 172 140 
Route 3 : 3 103 88 188 17 37 137 117 10 110 83 96 70 84 196 34 134 53 153 184 183 170 32 132 54 154 
Route 4 : 77 75 175 177 19 119 100 200 18 118 47 29 129 147 87 187 36 136 
Route 5 : 23 123 9 109 99 199 42 43 63 142 163 143 89 189 11 111 26 126 
Route 6 : 41 12 27 112 141 127 65 165 39 139 45 145 90 190 35 38 135 138 
Route 7 : 64 55 164 155 
Route 8 : 86 186 
Route 9 : 4 98 198 104 
Route 10 : 15 21 28 128 115 121 
Route 11 : 
Route 12 : 
Route 13 : 
Route 14 : 
Route 15 : 
Route 16 : 
Route 17 : 
Route 18 : 
Route 19 : 
Route 20 : 
Route 21 : 

--------------------------------------------------------------------------------(Solver execution current time: 23.722683429718018)
[INFO] AGES EXCLUDED
--------------------------------------------------------------------------------(Solver execution current time: 23.724368810653687)
[INFO] Starting LNS
--------------------------------------------------------------------------------(Solver execution current time: 24.822112798690796)
[SOLUTION]
LNS
IT: 40
Exec Time: 1.0953831672668457
obj_value: -88; obj_routes: 33736.0
Route 1 : 80 180 44 69 22 144 6 1 14 81 78 122 106 181 95 16 116 195 49 178 73 169 173 114 79 149 101 179 97 197 71 48 148 171 
Route 2 : 51 68 62 30 46 168 146 92 59 192 91 159 52 191 58 152 66 162 158 166 82 57 151 20 85 130 120 157 182 185 76 60 72 13 113 176 56 156 40 160 172 140 
Route 3 : 3 103 88 188 17 37 137 117 10 110 83 96 70 84 196 34 134 53 153 184 183 170 32 132 
Route 4 : 77 75 175 177 19 119 100 200 18 118 47 29 129 147 87 187 67 167 
Route 5 : 23 123 9 109 99 199 42 43 63 142 163 143 89 189 11 111 26 126 
Route 6 : 41 12 27 112 141 127 65 165 39 139 45 145 90 190 
Route 7 : 64 55 164 155 
Route 8 : 74 174 
Route 9 : 4 98 198 104 
Route 10 : 15 21 28 128 115 121 
Route 11 : 35 135 
Route 12 : 36 136 
Route 13 : 86 186 
Route 14 : 38 138 54 154 
Route 15 : 
Route 16 : 
Route 17 : 
Route 18 : 
Route 19 : 
Route 20 : 
Route 21 : 

--------------------------------------------------------------------------------(Solver execution current time: 24.82491111755371)
[INFO] Starting PartitionMaxRequestsHF
--------------------------------------------------------------------------------(Solver execution current time: 24.873021841049194)
[SOLUTION]
PartitionMaxRequestsHF
Exec Time: 0.04800558090209961
Improvedobj_value: -88; obj_routes: 32622.0
Route 1 : 80 180 44 69 22 144 6 1 14 81 78 122 106 181 95 16 116 195 49 178 73 169 173 114 79 149 101 179 97 197 67 71 48 167 148 171 74 174 
Route 2 : 51 68 62 30 46 168 146 92 59 192 91 159 52 191 58 152 66 162 158 166 82 57 151 20 85 130 120 157 182 185 76 60 72 13 113 176 56 156 40 160 172 140 
Route 3 : 3 103 88 188 17 37 137 117 10 110 83 96 70 84 196 34 134 53 153 184 183 170 32 132 54 154 
Route 4 : 77 75 175 177 19 119 100 200 18 118 47 29 129 147 87 187 36 136 
Route 5 : 23 123 9 109 99 199 42 43 63 142 163 143 89 189 11 111 26 126 
Route 6 : 41 12 27 112 141 127 65 165 39 139 45 145 90 190 35 38 135 138 
Route 7 : 64 55 164 155 
Route 8 : 86 186 
Route 9 : 4 98 198 104 
Route 10 : 15 21 28 128 115 121 
Route 11 : 
Route 12 : 
Route 13 : 
Route 14 : 
Route 15 : 
Route 16 : 
Route 17 : 
Route 18 : 
Route 19 : 
Route 20 : 
Route 21 : 

--------------------------------------------------------------------------------(Solver execution current time: 24.875107049942017)
[INFO] Starting OriginalPerturbation
--------------------------------------------------------------------------------(Solver execution current time: 26.39160704612732)
[SOLUTION]
Original Perturbation
Exec Time: 1.518127679824829
obj_value: -88; obj_routes: 33427.0
Route 1 : 80 180 44 69 22 144 6 1 14 81 78 122 106 181 95 16 116 195 49 178 73 169 173 114 79 149 101 179 97 197 71 54 154 48 148 171 
Route 2 : 51 68 62 30 46 168 146 92 59 192 91 159 52 191 58 152 66 162 158 166 82 57 151 20 85 130 120 157 182 185 76 60 72 13 113 176 56 156 40 160 172 140 
Route 3 : 3 103 88 188 17 37 137 117 10 110 83 96 70 84 196 34 134 53 153 184 183 170 
Route 4 : 77 75 175 177 19 119 100 200 18 118 47 29 129 147 87 187 
Route 5 : 23 123 9 109 99 199 42 43 63 142 163 143 89 189 11 111 26 126 
Route 6 : 41 12 27 112 141 127 65 165 39 139 45 145 90 190 
Route 7 : 64 55 164 155 
Route 8 : 35 135 
Route 9 : 4 98 198 104 
Route 10 : 15 21 28 128 115 121 
Route 11 : 86 186 
Route 12 : 67 167 
Route 13 : 36 136 
Route 14 : 38 138 74 174 
Route 15 : 32 132 
Route 16 : 
Route 17 : 
Route 18 : 
Route 19 : 
Route 20 : 
Route 21 : 

--------------------------------------------------------------------------------(Solver execution current time: 26.393683195114136)
[SOLUTION]
SBMath
IT: 3
ITs witout improving: 3
IT time: 2.6710057258605957
Time since begin: 15.136515855789185
obj_value: -88; obj_routes: 33427.0
Route 1 : 80 180 44 69 22 144 6 1 14 81 78 122 106 181 95 16 116 195 49 178 73 169 173 114 79 149 101 179 97 197 71 54 154 48 148 171 
Route 2 : 51 68 62 30 46 168 146 92 59 192 91 159 52 191 58 152 66 162 158 166 82 57 151 20 85 130 120 157 182 185 76 60 72 13 113 176 56 156 40 160 172 140 
Route 3 : 3 103 88 188 17 37 137 117 10 110 83 96 70 84 196 34 134 53 153 184 183 170 
Route 4 : 77 75 175 177 19 119 100 200 18 118 47 29 129 147 87 187 
Route 5 : 23 123 9 109 99 199 42 43 63 142 163 143 89 189 11 111 26 126 
Route 6 : 41 12 27 112 141 127 65 165 39 139 45 145 90 190 
Route 7 : 64 55 164 155 
Route 8 : 35 135 
Route 9 : 4 98 198 104 
Route 10 : 15 21 28 128 115 121 
Route 11 : 86 186 
Route 12 : 67 167 
Route 13 : 36 136 
Route 14 : 38 138 74 174 
Route 15 : 32 132 
Route 16 : 
Route 17 : 
Route 18 : 
Route 19 : 
Route 20 : 
Route 21 : 

--------------------------------------------------------------------------------(Solver execution current time: 26.393988132476807)
[SOLUTION]
SBMath
IT: 3
ITs witout improving: 3
IT time: 2.6710057258605957
Time since begin: 15.136515855789185
obj_value: -88; obj_routes: 32622.0
Route 1 : 80 180 44 69 22 144 6 1 14 81 78 122 106 181 95 16 116 195 49 178 73 169 173 114 79 149 101 179 97 197 67 71 48 167 148 171 74 174 
Route 2 : 51 68 62 30 46 168 146 92 59 192 91 159 52 191 58 152 66 162 158 166 82 57 151 20 85 130 120 157 182 185 76 60 72 13 113 176 56 156 40 160 172 140 
Route 3 : 3 103 88 188 17 37 137 117 10 110 83 96 70 84 196 34 134 53 153 184 183 170 32 132 54 154 
Route 4 : 77 75 175 177 19 119 100 200 18 118 47 29 129 147 87 187 36 136 
Route 5 : 23 123 9 109 99 199 42 43 63 142 163 143 89 189 11 111 26 126 
Route 6 : 41 12 27 112 141 127 65 165 39 139 45 145 90 190 35 38 135 138 
Route 7 : 64 55 164 155 
Route 8 : 86 186 
Route 9 : 4 98 198 104 
Route 10 : 15 21 28 128 115 121 
Route 11 : 
Route 12 : 
Route 13 : 
Route 14 : 
Route 15 : 
Route 16 : 
Route 17 : 
Route 18 : 
Route 19 : 
Route 20 : 
Route 21 : 

--------------------------------------------------------------------------------(Solver execution current time: 26.394218683242798)
[INFO] AGES EXCLUDED
--------------------------------------------------------------------------------(Solver execution current time: 26.39621663093567)
[INFO] Starting LNS
--------------------------------------------------------------------------------(Solver execution current time: 27.78170943260193)
[SOLUTION]
LNS
IT: 40
Exec Time: 1.3831899166107178
obj_value: -88; obj_routes: 33427.0
Route 1 : 80 180 44 69 22 144 6 1 14 81 78 122 106 181 95 16 116 195 49 178 73 169 173 114 79 149 101 179 97 197 71 54 154 48 148 171 
Route 2 : 51 68 62 30 46 168 146 92 59 192 91 159 52 191 58 152 66 162 158 166 82 57 151 20 85 130 120 157 182 185 76 60 72 13 113 176 56 156 40 160 172 140 
Route 3 : 3 103 88 188 17 37 137 117 10 110 83 96 70 84 196 34 134 53 153 184 183 170 
Route 4 : 77 75 175 177 19 119 100 200 18 118 47 29 129 147 87 187 
Route 5 : 23 123 9 109 99 199 42 43 63 142 163 143 89 189 11 111 26 126 
Route 6 : 41 12 27 112 141 127 65 165 39 139 45 145 90 190 
Route 7 : 64 55 164 155 
Route 8 : 35 135 
Route 9 : 4 98 198 104 
Route 10 : 15 21 28 128 115 121 
Route 11 : 86 186 
Route 12 : 67 167 
Route 13 : 36 136 
Route 14 : 38 138 74 174 
Route 15 : 32 132 
Route 16 : 
Route 17 : 
Route 18 : 
Route 19 : 
Route 20 : 
Route 21 : 

--------------------------------------------------------------------------------(Solver execution current time: 27.784289121627808)
[INFO] Starting PartitionMaxRequestsHF
--------------------------------------------------------------------------------(Solver execution current time: 27.818291902542114)
[SOLUTION]
PartitionMaxRequestsHF
Exec Time: 0.03392505645751953
Improvedobj_value: -88; obj_routes: 32622.0
Route 1 : 80 180 44 69 22 144 6 1 14 81 78 122 106 181 95 16 116 195 49 178 73 169 173 114 79 149 101 179 97 197 67 71 48 167 148 171 74 174 
Route 2 : 51 68 62 30 46 168 146 92 59 192 91 159 52 191 58 152 66 162 158 166 82 57 151 20 85 130 120 157 182 185 76 60 72 13 113 176 56 156 40 160 172 140 
Route 3 : 3 103 88 188 17 37 137 117 10 110 83 96 70 84 196 34 134 53 153 184 183 170 32 132 54 154 
Route 4 : 77 75 175 177 19 119 100 200 18 118 47 29 129 147 87 187 36 136 
Route 5 : 23 123 9 109 99 199 42 43 63 142 163 143 89 189 11 111 26 126 
Route 6 : 41 12 27 112 141 127 65 165 39 139 45 145 90 190 35 38 135 138 
Route 7 : 64 55 164 155 
Route 8 : 86 186 
Route 9 : 4 98 198 104 
Route 10 : 15 21 28 128 115 121 
Route 11 : 
Route 12 : 
Route 13 : 
Route 14 : 
Route 15 : 
Route 16 : 
Route 17 : 
Route 18 : 
Route 19 : 
Route 20 : 
Route 21 : 

--------------------------------------------------------------------------------(Solver execution current time: 27.823476552963257)
[INFO] Starting OriginalPerturbation
--------------------------------------------------------------------------------(Solver execution current time: 30.01314663887024)
[WARNING] Time Limit Exceeded
--------------------------------------------------------------------------------(Solver execution current time: 30.013256788253784)
[WARNING] Searching current best solution.
--------------------------------------------------------------------------------(Solver execution current time: 30.015877723693848)
[INFO] Algorithm execution time : 30.02057957649231
--------------------------------------------------------------------------------(Solver execution current time: 30.01727056503296)
[SOLUTION]
Final Solution Verification
====================================
Constraints verification: 
Homogenous Capacity Constraint OK
Time Windwos Constraint OK
Pickup and Delivery Constraint OK
Fixed Requests Constraint OK
Limited Fleet Constraint OK
Heterogeneous Fleet Constraint OK
====================================
Obj Func verification: 
SOLUTION COST OK
------------------------------------
ROUTES TOTAL COST OK
------------------------------------
REQUESTS TOTAL COST OK
------------------------------------
OBJECTIVE VALUE: -88
ROUTES VALUE: 32622.0
------------------------------------

Best Solution: 
obj_value: -88; obj_routes: 32622.0
Route 1 : 80 180 44 69 22 144 6 1 14 81 78 122 106 181 95 16 116 195 49 178 73 169 173 114 79 149 101 179 97 197 67 71 48 167 148 171 74 174 
Route 2 : 51 68 62 30 46 168 146 92 59 192 91 159 52 191 58 152 66 162 158 166 82 57 151 20 85 130 120 157 182 185 76 60 72 13 113 176 56 156 40 160 172 140 
Route 3 : 3 103 88 188 17 37 137 117 10 110 83 96 70 84 196 34 134 53 153 184 183 170 32 132 54 154 
Route 4 : 77 75 175 177 19 119 100 200 18 118 47 29 129 147 87 187 36 136 
Route 5 : 23 123 9 109 99 199 42 43 63 142 163 143 89 189 11 111 26 126 
Route 6 : 41 12 27 112 141 127 65 165 39 139 45 145 90 190 35 38 135 138 
Route 7 : 64 55 164 155 
Route 8 : 86 186 
Route 9 : 4 98 198 104 
Route 10 : 15 21 28 128 115 121 
Route 11 : 
Route 12 : 
Route 13 : 
Route 14 : 
Route 15 : 
Route 16 : 
Route 17 : 
Route 18 : 
Route 19 : 
Route 20 : 
Route 21 : 

--------------------------------------------------------------------------------